Solving original (integer) problem with strategy gdp.bigm...
--- Job model.gms Start 02/14/26 20:13:37 52.2.0 d8e408be LEX-LEG x86 64bit/Linux
--- Applying:
    /package/gams/52.2/gmsprmun.txt
--- GAMS Parameters defined
    Input /local/scratch/a/sgusev/repos/k_means/data/gams_gurobi_gdp.bigm/no_mode/2026-02-14_20-13-36/original/model.gms
    Output /local/scratch/a/sgusev/repos/k_means/data/gams_gurobi_gdp.bigm/no_mode/2026-02-14_20-13-36/original/output.lst
    ScrDir /local/scratch/a/sgusev/repos/k_means/data/gams_gurobi_gdp.bigm/no_mode/2026-02-14_20-13-36/original/225a/
    SysDir /package/gams/52.2/
    CurDir /local/scratch/a/sgusev/repos/k_means/data/gams_gurobi_gdp.bigm/no_mode/2026-02-14_20-13-36/original/
    LogOption 3
    AppendLog 1
Licensee: David Bernal / SECQUOIA Research Group         G251008+0003Ac-GEN
          Purdue University, Davidson School of Chemical EngineeringDCE4838
          225a/gamslice.dat
          5a82958a-fbca-4a23
          node:66820903 mem:995 cores:48 ipport:40267 v:2                  
          Evaluation license: Not for commercial or production use
          The time-limited license stops working on : Jun 30, 2027
System information: 48 physical cores and 995 Gb physical memory detected
GAMS 52.2.0   Copyright (C) 1987-2025 GAMS Development. All rights reserved
--- Starting compilation
--- model.gms(301) 2 Mb
--- $echo File /local/scratch/a/sgusev/repos/k_means/data/gams_gurobi_gdp.bigm/no_mode/2026-02-14_20-13-36/original/gurobi.opt
--- model.gms(530) 2 Mb
--- Starting execution: elapsed 0:00:00.006
--- model.gms(310) 3 Mb
--- Generating MINLP model GAMS_MODEL
--- model.gms(314) 5 Mb
---   79 rows  84 columns  322 non-zeroes
---   540 nl-code  120 nl-non-zeroes
---   60 discrete-columns
--- Range statistics (absolute non-zero finite values)
--- RHS       [min, max] : [ 1.000E+00, 7.445E+00] - Zero values observed as well
--- Bound     [min, max] : [ 1.000E+00, 6.000E+01] - Zero values observed as well
--- Matrix    [min, max] : [ 6.444E-02, 7.445E+00]
--- model.gms(314) 3 Mb
--- Executing GUROBI (Solvelink=5): elapsed 0:00:00.009
Reading parameter(s) from "/local/scratch/a/sgusev/repos/k_means/data/gams_gurobi_gdp.bigm/no_mode/2026-02-14_20-13-36/original/gurobi.opt"
>>  NonConvex 2
>>  Threads 1
>>  MIPGap 1e-06
>>  MIPGapAbs 1e-10
>>  FeasibilityTol 1e-06
>>  OptimalityTol 1e-06
>>  IntFeasTol 1e-05
Finished reading from "/local/scratch/a/sgusev/repos/k_means/data/gams_gurobi_gdp.bigm/no_mode/2026-02-14_20-13-36/original/gurobi.opt"

... GRB_LICENSE_FILE = /local/scratch/a/sgusev/gurobi.lic

    Gurobi           52.2.0 d8e408be Dec 8, 2025           LEG x86 64bit/Linux    

... GAMS/Gurobi Link license.
... GMO Q Extraction (ThreePass): 0.00s

    Gurobi Optimizer version 13.0.0 build v13.0.0rc1 (linux64 - "Oracle Linux Server 9.7")
    
    CPU model: AMD EPYC 7643 48-Core Processor, instruction set [SSE2|AVX|AVX2]
    Thread count: 48 physical cores, 96 logical processors, using up to 1 threads
    
    Non-default parameters:
    TimeLimit  300
    MIPGap  1e-06
    LogToConsole  0
    NonConvex  2
    Threads  1
    
    Optimize a model with 18 rows, 83 columns and 66 nonzeros (Min)
    Model fingerprint: 0x626529ae
    Model has 15 linear objective coefficients
    Model has 60 quadratic constraints
    Variable types: 23 continuous, 60 integer (0 binary)
    Coefficient statistics:
      Matrix range     [1e+00, 1e+00]
      QMatrix range    [1e+00, 1e+00]
      QLMatrix range   [6e-02, 7e+00]
      Objective range  [1e+00, 1e+00]
      Bounds range     [1e+00, 6e+01]
      RHS range        [1e+00, 1e+00]
      QRHS range       [3e+00, 6e+00]
    Presolve added 60 rows and 4 columns
    Presolve time: 0.00s
    Presolved: 78 rows, 87 columns, 366 nonzeros
    Presolved model has 4 quadratic constraint(s)
    Variable types: 27 continuous, 60 integer (60 binary)
    
    Root relaxation: objective 0.000000e+00, 32 iterations, 0.00 seconds (0.00 work units)
    
        Nodes    |    Current Node    |     Objective Bounds      |     Work
     Expl Unexpl |  Obj  Depth IntInf | Incumbent    BestBd   Gap | It/Node Time
    
    H    0     0                       5.1009016    0.00000   100%     -    0s
    *    0     0               0       5.1009016    0.00000   100%     -    0s
         0     0    0.00000    0   20    5.10090    0.00000   100%     -    0s
         0     0    0.00000    0   15    5.10090    0.00000   100%     -    0s
    H    0     0                       5.0582013    0.00000   100%     -    0s
         0     0    0.00000    0   21    5.05820    0.00000   100%     -    0s
         0     0    0.00000    0   27    5.05820    0.00000   100%     -    0s
    H    0     0                       4.1490884    0.00000   100%     -    0s
    *    0     0               0       4.1490884    0.00000   100%     -    0s
         0     0    0.00000    0   17    4.14909    0.00000   100%     -    0s
         0     0    0.00000    0   27    4.14909    0.00000   100%     -    0s
         0     0    0.00000    0   24    4.14909    0.00000   100%     -    0s
         0     0    0.00000    0   26    4.14909    0.00000   100%     -    0s
    H    0     0                       3.2801054    0.00000   100%     -    0s
    *    0     0               0       3.2801054    0.00000   100%     -    0s
         0     0    0.00000    0   16    3.28011    0.00000   100%     -    0s
         0     0    0.00000    0   22    3.28011    0.00000   100%     -    0s
         0     0    0.00000    0   16    3.28011    0.00000   100%     -    0s
         0     0    0.00000    0   20    3.28011    0.00000   100%     -    0s
         0     0    0.00000    0   20    3.28011    0.00000   100%     -    0s
         0     0    0.00000    0   30    3.28011    0.00000   100%     -    0s
         0     0    0.00000    0   26    3.28011    0.00000   100%     -    0s
         0     0    0.00000    0   30    3.28011    0.00000   100%     -    0s
         0     0    0.00000    0   18    3.28011    0.00000   100%     -    0s
         0     0    0.00000    0   24    3.28011    0.00000   100%     -    0s
         0     0    0.00000    0   20    3.28011    0.00000   100%     -    0s
         0     0    0.00000    0   24    3.28011    0.00000   100%     -    0s
         0     0    0.00000    0   24    3.28011    0.00000   100%     -    0s
         0     0    0.00000    0   28    3.28011    0.00000   100%     -    0s
         0     0    0.00000    0   22    3.28011    0.00000   100%     -    0s
         0     0    0.00000    0   24    3.28011    0.00000   100%     -    0s
         0     0    0.00000    0   18    3.28011    0.00000   100%     -    0s
         0     0    0.00000    0   14    3.28011    0.00000   100%     -    0s
         0     0    0.00000    0   14    3.28011    0.00000   100%     -    0s
         0     0    0.00000    0   24    3.28011    0.00000   100%     -    0s
         0     0    0.00000    0   24    3.28011    0.00000   100%     -    0s
         0     0    0.00000    0   26    3.28011    0.00000   100%     -    0s
         0     0    0.00000    0   26    3.28011    0.00000   100%     -    0s
         0     0    0.00000    0   24    3.28011    0.00000   100%     -    0s
         0     0    0.00000    0   22    3.28011    0.00000   100%     -    0s
         0     0    0.00000    0   26    3.28011    0.00000   100%     -    0s
         0     0    0.00000    0   24    3.28011    0.00000   100%     -    0s
         0     0    0.00000    0   26    3.28011    0.00000   100%     -    0s
         0     0    0.00000    0   26    3.28011    0.00000   100%     -    0s
         0     0    0.00000    0   26    3.28011    0.00000   100%     -    0s
         0     0    0.00000    0   18    3.28011    0.00000   100%     -    0s
         0     0    0.00000    0   24    3.28011    0.00000   100%     -    0s
         0     0    0.00000    0   20    3.28011    0.00000   100%     -    0s
         0     0    0.00000    0   18    3.28011    0.00000   100%     -    0s
         0     0    0.00000    0   18    3.28011    0.00000   100%     -    0s
         0     0    0.00000    0   26    3.28011    0.00000   100%     -    0s
         0     0    0.00000    0   20    3.28011    0.00000   100%     -    0s
         0     0    0.00000    0   20    3.28011    0.00000   100%     -    0s
         0     0    0.00000    0   20    3.28011    0.00000   100%     -    0s
         0     0    0.00000    0   24    3.28011    0.00000   100%     -    0s
         0     0    0.00000    0   22    3.28011    0.00000   100%     -    0s
         0     0    0.00000    0   26    3.28011    0.00000   100%     -    0s
         0     0    0.00000    0   24    3.28011    0.00000   100%     -    0s
         0     0    0.00000    0   28    3.28011    0.00000   100%     -    0s
         0     0    0.00000    0   10    3.28011    0.00000   100%     -    0s
         0     0    0.00000    0   22    3.28011    0.00000   100%     -    0s
         0     0    0.00000    0   22    3.28011    0.00000   100%     -    0s
         0     0    0.00000    0   24    3.28011    0.00000   100%     -    0s
         0     0    0.00000    0   24    3.28011    0.00000   100%     -    0s
         0     0    0.00000    0   26    3.28011    0.00000   100%     -    0s
         0     0    0.00000    0   22    3.28011    0.00000   100%     -    0s
         0     0    0.00000    0   24    3.28011    0.00000   100%     -    0s
         0     0    0.00000    0   24    3.28011    0.00000   100%     -    0s
         0     0    0.00000    0   30    3.28011    0.00000   100%     -    0s
         0     0    0.00000    0   20    3.28011    0.00000   100%     -    0s
         0     0    0.00000    0   28    3.28011    0.00000   100%     -    0s
         0     0    0.00000    0   20    3.28011    0.00000   100%     -    0s
         0     0    0.00000    0   28    3.28011    0.00000   100%     -    0s
         0     0    0.00000    0   24    3.28011    0.00000   100%     -    0s
         0     0    0.00000    0   28    3.28011    0.00000   100%     -    0s
         0     0    0.00000    0   24    3.28011    0.00000   100%     -    0s
         0     0    0.00000    0   24    3.28011    0.00000   100%     -    0s
         0     0    0.00000    0   18    3.28011    0.00000   100%     -    0s
         0     0    0.00000    0   24    3.28011    0.00000   100%     -    0s
         0     0    0.00000    0   22    3.28011    0.00000   100%     -    0s
         0     0    0.00000    0   26    3.28011    0.00000   100%     -    0s
         0     0    0.00000    0   22    3.28011    0.00000   100%     -    0s
         0     0    0.00000    0   26    3.28011    0.00000   100%     -    0s
         0     0    0.00000    0   23    3.28011    0.00000   100%     -    0s
         0     0    0.00000    0   27    3.28011    0.00000   100%     -    0s
         0     0    0.00000    0   20    3.28011    0.00000   100%     -    0s
         0     0    0.00000    0   18    3.28011    0.00000   100%     -    0s
         0     0    0.00000    0   18    3.28011    0.00000   100%     -    0s
         0     0    0.00000    0   26    3.28011    0.00000   100%     -    0s
         0     0    0.00000    0   16    3.28011    0.00000   100%     -    0s
         0     0    0.00000    0   22    3.28011    0.00000   100%     -    0s
         0     0    0.00000    0   22    3.28011    0.00000   100%     -    0s
         0     0    0.00000    0   26    3.28011    0.00000   100%     -    0s
         0     0    0.00000    0   22    3.28011    0.00000   100%     -    0s
         0     0    0.00000    0   28    3.28011    0.00000   100%     -    0s
         0     0    0.00000    0   28    3.28011    0.00000   100%     -    0s
         0     0    0.00000    0   28    3.28011    0.00000   100%     -    0s
         0     0    0.00000    0   28    3.28011    0.00000   100%     -    0s
         0     0    0.00000    0   28    3.28011    0.00000   100%     -    0s
         0     0    0.00000    0   14    3.28011    0.00000   100%     -    0s
         0     0    0.00000    0   16    3.28011    0.00000   100%     -    0s
         0     0    0.00000    0   16    3.28011    0.00000   100%     -    0s
         0     0    0.00000    0   22    3.28011    0.00000   100%     -    0s
         0     0    0.00000    0   22    3.28011    0.00000   100%     -    0s
         0     0    0.00000    0   26    3.28011    0.00000   100%     -    0s
         0     0    0.00000    0   12    3.28011    0.00000   100%     -    0s
         0     0    0.00000    0   25    3.28011    0.00000   100%     -    0s
         0     0    0.00000    0   24    3.28011    0.00000   100%     -    0s
         0     0    0.00000    0   20    3.28011    0.00000   100%     -    0s
         0     0    0.00000    0   20    3.28011    0.00000   100%     -    0s
         0     0    0.00000    0   28    3.28011    0.00000   100%     -    0s
         0     0    0.00000    0   24    3.28011    0.00000   100%     -    0s
         0     0    0.00000    0   28    3.28011    0.00000   100%     -    0s
         0     0    0.00000    0   26    3.28011    0.00000   100%     -    0s
         0     0    0.00000    0   28    3.28011    0.00000   100%     -    0s
         0     0    0.00000    0   18    3.28011    0.00000   100%     -    0s
         0     0    0.00000    0   22    3.28011    0.00000   100%     -    0s
         0     0    0.00000    0   22    3.28011    0.00000   100%     -    0s
         0     0    0.00000    0   28    3.28011    0.00000   100%     -    0s
         0     0    0.00000    0   24    3.28011    0.00000   100%     -    0s
         0     0    0.00000    0   26    3.28011    0.00000   100%     -    0s
         0     0    0.00000    0   18    3.28011    0.00000   100%     -    0s
         0     0    0.00000    0   24    3.28011    0.00000   100%     -    0s
         0     0    0.00000    0   22    3.28011    0.00000   100%     -    0s
         0     0    0.00000    0   26    3.28011    0.00000   100%     -    0s
         0     0    0.00000    0   16    3.28011    0.00000   100%     -    0s
         0     0    0.00000    0   22    3.28011    0.00000   100%     -    0s
         0     0    0.00000    0   22    3.28011    0.00000   100%     -    0s
         0     0    0.00000    0   26    3.28011    0.00000   100%     -    0s
         0     0    0.00000    0   26    3.28011    0.00000   100%     -    0s
         0     0    0.00000    0   28    3.28011    0.00000   100%     -    0s
         0     0    0.00000    0   20    3.28011    0.00000   100%     -    0s
         0     0    0.00000    0   28    3.28011    0.00000   100%     -    0s
         0     0    0.00000    0   16    3.28011    0.00000   100%     -    0s
         0     0    0.00000    0   20    3.28011    0.00000   100%     -    0s
         0     0    0.00000    0   20    3.28011    0.00000   100%     -    0s
         0     0    0.00000    0   22    3.28011    0.00000   100%     -    0s
         0     0    0.00000    0   22    3.28011    0.00000   100%     -    0s
         0     0    0.00000    0   28    3.28011    0.00000   100%     -    0s
         0     0    0.00000    0   16    3.28011    0.00000   100%     -    0s
         0     0    0.00000    0   24    3.28011    0.00000   100%     -    0s
         0     0    0.00000    0   12    3.28011    0.00000   100%     -    0s
         0     0    0.00000    0   20    3.28011    0.00000   100%     -    0s
         0     0    0.00000    0   20    3.28011    0.00000   100%     -    0s
         0     0    0.00000    0   28    3.28011    0.00000   100%     -    0s
         0     0    0.00000    0   22    3.28011    0.00000   100%     -    0s
         0     0    0.00000    0   30    3.28011    0.00000   100%     -    0s
         0     0    0.00000    0   22    3.28011    0.00000   100%     -    0s
         0     0    0.00000    0   24    3.28011    0.00000   100%     -    0s
         0     0    0.00000    0   22    3.28011    0.00000   100%     -    0s
         0     0    0.00000    0   28    3.28011    0.00000   100%     -    0s
         0     0    0.00000    0   14    3.28011    0.00000   100%     -    0s
         0     0    0.00000    0   18    3.28011    0.00000   100%     -    0s
         0     0    0.00000    0   18    3.28011    0.00000   100%     -    0s
         0     0    0.00000    0   22    3.28011    0.00000   100%     -    0s
         0     0    0.00000    0   22    3.28011    0.00000   100%     -    0s
         0     0    0.00000    0   26    3.28011    0.00000   100%     -    0s
         0     0    0.00000    0   20    3.28011    0.00000   100%     -    0s
         0     0    0.00000    0   22    3.28011    0.00000   100%     -    0s
         0     0    0.00000    0   14    3.28011    0.00000   100%     -    0s
         0     0    0.00000    0   24    3.28011    0.00000   100%     -    0s
         0     0    0.00000    0   22    3.28011    0.00000   100%     -    0s
         0     0    0.00000    0   26    3.28011    0.00000   100%     -    0s
         0     0    0.00000    0   26    3.28011    0.00000   100%     -    0s
         0     0    0.00000    0   28    3.28011    0.00000   100%     -    0s
         0     0    0.00000    0   24    3.28011    0.00000   100%     -    0s
         0     0    0.00000    0   26    3.28011    0.00000   100%     -    0s
         0     0    0.00000    0   24    3.28011    0.00000   100%     -    0s
         0     0    0.00000    0   28    3.28011    0.00000   100%     -    0s
         0     0    0.00000    0   20    3.28011    0.00000   100%     -    0s
         0     0    0.00000    0   16    3.28011    0.00000   100%     -    0s
         0     0    0.00000    0   16    3.28011    0.00000   100%     -    0s
         0     0    0.00000    0   24    3.28011    0.00000   100%     -    0s
         0     0    0.00000    0   24    3.28011    0.00000   100%     -    0s
         0     0    0.00000    0   26    3.28011    0.00000   100%     -    0s
         0     0    0.00000    0   23    3.28011    0.00000   100%     -    0s
         0     0    0.00000    0   26    3.28011    0.00000   100%     -    0s
         0     0    0.00000    0   22    3.28011    0.00000   100%     -    0s
         0     0    0.00000    0   20    3.28011    0.00000   100%     -    0s
         0     0    0.00000    0   20    3.28011    0.00000   100%     -    0s
         0     0    0.00000    0   28    3.28011    0.00000   100%     -    0s
         0     0    0.00000    0   26    3.28011    0.00000   100%     -    0s
         0     0    0.00000    0   26    3.28011    0.00000   100%     -    0s
         0     0    0.00000    0   16    3.28011    0.00000   100%     -    0s
         0     0    0.00000    0   22    3.28011    0.00000   100%     -    0s
         0     0    0.00000    0   22    3.28011    0.00000   100%     -    0s
         0     0    0.00000    0   26    3.28011    0.00000   100%     -    0s
         0     0    0.00000    0   22    3.28011    0.00000   100%     -    0s
         0     0    0.00000    0   26    3.28011    0.00000   100%     -    0s
         0     0    0.00000    0   24    3.28011    0.00000   100%     -    0s
         0     0    0.00000    0   28    3.28011    0.00000   100%     -    0s
         0     0    0.00000    0   22    3.28011    0.00000   100%     -    0s
         0     0    0.00000    0   26    3.28011    0.00000   100%     -    0s
         0     0    0.00000    0   26    3.28011    0.00000   100%     -    0s
         0     0    0.00000    0   24    3.28011    0.00000   100%     -    0s
         0     0    0.00000    0    8    3.28011    0.00000   100%     -    0s
         0     0    0.00000    0   22    3.28011    0.00000   100%     -    0s
         0     0    0.00000    0   22    3.28011    0.00000   100%     -    0s
         0     0    0.00000    0   28    3.28011    0.00000   100%     -    0s
         0     0    0.00000    0   22    3.28011    0.00000   100%     -    0s
         0     0    0.00000    0   24    3.28011    0.00000   100%     -    0s
         0     0    0.00000    0   12    3.28011    0.00000   100%     -    0s
         0     0    0.00000    0   22    3.28011    0.00000   100%     -    0s
         0     0    0.00000    0   22    3.28011    0.00000   100%     -    0s
         0     0    0.00000    0   22    3.28011    0.00000   100%     -    0s
         0     0    0.00000    0   16    3.28011    0.00000   100%     -    0s
         0     0    0.00000    0   22    3.28011    0.00000   100%     -    0s
         0     0    0.00000    0   22    3.28011    0.00000   100%     -    0s
         0     2    0.00000    0   22    3.28011    0.00000   100%     -    0s
    H   53    49                       2.7442802    0.00000   100%   6.7    0s
    H  159   105                       2.7442802    0.00000   100%   7.1    0s
    H  263   149                       2.7442802    0.00000   100%   7.9    0s
    H  359   181                       2.5602171    0.00000   100%   8.2    0s
    H  368   177                       2.2369700    0.00000   100%   8.0    0s
    H  686   255                       2.2369700    0.00000   100%  34.2    1s
    H  812   254                       2.2369700    0.00000   100%  30.2    1s
    H  816   245                       2.2369700    0.00000   100%  30.1    1s
    H 1001   249                       2.2369700    0.00000   100%  25.9    1s
    H 1142   268                       2.2369699    0.00000   100%  23.8    1s
    H 1144   269                       2.2369699    0.00000   100%  23.7    1s
    H 1488   377                       2.1324876    0.15016  93.0%  19.9    1s
    H 3868   603                       2.1247332    1.14723  46.0%  12.1    1s
    * 6423     0              45       2.1247329    2.12473  0.00%  10.2    2s
    
    Cutting planes:
      Flow cover: 3
      Inf proof: 1
    
    Explored 6424 nodes (73754 simplex iterations) in 2.60 seconds (2.03 work units)
    Thread count was 1 (of 96 available processors)
    
    Solution count 8: 2.12473 2.13249 2.23697 ... 5.1009
    
    Optimal solution found (tolerance 1.00e-06)
    Best objective 2.124732944971e+00, best bound 2.124732944971e+00, gap 0.0000%
    
    User-callback calls 6541, time in user-callback 0.00 sec

... Solving fixed model...

    Gurobi Optimizer version 13.0.0 build v13.0.0rc1 (linux64 - "Oracle Linux Server 9.7")
    
    CPU model: AMD EPYC 7643 48-Core Processor, instruction set [SSE2|AVX|AVX2]
    Thread count: 48 physical cores, 96 logical processors, using up to 1 threads
    
    Non-default parameters:
    TimeLimit  300
    MIPGap  1e-06
    LogToConsole  0
    NonConvex  2
    Threads  1
    
    Optimize a model with 18 rows, 83 columns and 66 nonzeros (Min)
    Model fingerprint: 0xb4c5e296
    Model has 15 linear objective coefficients
    Model has 60 quadratic constraints
    Coefficient statistics:
      Matrix range     [1e+00, 1e+00]
      QMatrix range    [1e+00, 1e+00]
      QLMatrix range   [6e-02, 7e+00]
      Objective range  [1e+00, 1e+00]
      Bounds range     [1e+00, 6e+01]
      RHS range        [1e+00, 1e+00]
      QRHS range       [3e+00, 6e+00]
    Presolve removed 15 rows and 60 columns
    Presolve time: 0.00s
    Presolved: 60 rows, 75 columns, 145 nonzeros
    Presolved model has 15 second-order cone constraints
    Ordering time: 0.00s
    
    Barrier statistics:
     AA' NZ     : 3.600e+02
     Factor NZ  : 5.500e+02
     Factor Ops : 6.562e+03 (less than 1 second per iteration)
     Threads    : 1
    
                      Objective                Residual
    Iter       Primal          Dual         Primal    Dual     Compl     Time
       0   7.59024197e+02 -3.11035196e+02  2.01e+01 2.77e+00  1.62e+01     0s
       1   7.98085764e+01 -6.91615919e+01  2.21e-05 3.04e-06  1.42e+00     0s
       2   4.42715807e+00 -1.41674409e+01  7.87e-07 6.96e-07  1.77e-01     0s
       3   2.88622795e+00 -2.46455102e+00  4.25e-08 1.66e-07  5.10e-02     0s
       4   2.27759520e+00  1.69991297e+00  2.76e-12 1.39e-08  5.50e-03     0s
       5   2.13212788e+00  2.10691744e+00  1.55e-13 5.10e-10  2.40e-04     0s
       6   2.12567888e+00  2.12228426e+00  1.00e-12 6.91e-11  3.23e-05     0s
       7   2.12496674e+00  2.12432922e+00  1.86e-11 1.12e-11  6.07e-06     0s
       8   2.12480075e+00  2.12461590e+00  2.51e-11 3.21e-12  1.76e-06     0s
       9   2.12474737e+00  2.12470682e+00  5.21e-10 2.64e-12  3.86e-07     0s
      10   2.12473662e+00  2.12472503e+00  2.00e-09 1.35e-11  1.10e-07     0s
      11   2.12473397e+00  2.12473042e+00  3.12e-09 1.10e-11  3.38e-08     0s
      12   2.12473303e+00  2.12473273e+00  2.81e-10 4.19e-12  2.87e-09     0s
    
    Barrier solved model in 12 iterations and 0.00 seconds (0.00 work units)
    Optimal objective 2.12473303e+00
    
    
    User-callback calls 0, time in user-callback 0.00 sec
    Warning: to get QCP duals, please set parameter QCPDual to 1

--- Reading solution for model GAMS_MODEL
***
*** Solver did not provide marginals for model GAMS_MODEL
***
--- Executing after solve: elapsed 0:00:02.641
--- model.gms(317) 3 Mb
--- model.gms(530) 5 Mb
--- Putfile results /local/scratch/a/sgusev/repos/k_means/data/gams_gurobi_gdp.bigm/no_mode/2026-02-14_20-13-36/original/results.dat
--- Putfile statresults /local/scratch/a/sgusev/repos/k_means/data/gams_gurobi_gdp.bigm/no_mode/2026-02-14_20-13-36/original/resultsstat.dat
*** Status: Normal completion
--- Job model.gms Stop 02/14/26 20:13:39 elapsed 0:00:02.642
Original problem solved. Time taken: 3.2099595069885254 seconds
Original objective value: 2.124733034681554
